NAME : airline78.-158922332.tour
COMMENT : Length = -158922332
COMMENT : Found by LKH [Keld Helsgaun] Tue Jul 13 16:06:51 2021
TYPE : TOUR
DIMENSION : 29
TOUR_SECTION
1
8
4
6
3
13
2
17
19
18
10
23
22
5
29
9
28
27
16
15
14
12
7
24
20
25
21
26
11
-1
EOF
